units metal
atom_style atomic
boundary p p p

lattice fcc 4.07 origin 0 0 0 orient z 1 1 0 orient x 0 0 -1 orient y -1 1 0
region box block 0 10 0 5 0 40 units lattice side in
create_box 1 box
create_atoms 1 box

region 1 prism 5.1 10.0 0 5 -1 1000 10 0 0
region 2 prism -1.0 4.9 0 5 -1 1000 -10 0 0
region 3 prism 14.9 20.0 0 5 -1 1000 -10 0 0
region 4 prism -20.0 -4.5 0 5 -1 1000 10 0 0

group del1 region 1
group del2 region 2
group del3 region 3
group del4 region 4

delete_atoms group del1
delete_atoms group del2
delete_atoms group del3
delete_atoms group del4

pair_style eam
pair_coeff * * Au_u3.eam
neighbor 1.5 bin
neigh_modify every 1 delay 1

velocity all create 300 87654321 dist gaussian
velocity all zero linear
velocity all zero angular

thermo 200
thermo_style custom step atoms temp pe lx ly lz pzz press
thermo_modify lost warn norm yes flush yes

timestep 0.005

dump 1 all custom 100 pos.dump id type x y z

fix 1 all npt temp 300.0 300.0 10.0 aniso 0.0 0.0 10.0 drag 1.0
run 20000

unfix 1
undump 1
reset_timestep 0

compute MyTemp all temp
compute MyPe all pe

fix ThermoAve all ave/time 1 100 200 c_MyTemp c_MyPe

thermo 200
thermo_style custom step atoms f_ThermoAve[1] f_ThermoAve[2] lz vol pzz
thermo_modify lost warn norm yes flush yes

fix 1 all nvt temp 300.0 300.0 10.0
fix 2 all deform 200 z erate 0.0001

dump 2 all xyz 50000 Au_*.xyz

run 500000
