units            metal
boundary         p p p
atom_style       atomic
dimension 3

region box block 0 25 0 25 0 25
create_box 1 box

lattice fcc 3.48
create_atoms 1 box

mass 1 58.6934

pair_style eam
pair_coeff * * Ni_u3.eam
neighbor 1.5 bin
neigh_modify every 1 delay 1

timestep 0.005

thermo 25
thermo_style custom step temp press etotal vol

variable step equal step
variable temp equal temp
variable press equal press
variable etotal equal etotal
variable vol equal vol

fix samp_out all print 10 "${step} ${temp} ${press} ${etotal} ${vol}" &
                 file thermo_output.txt screen no

dump 100 all atom 100 ni_xray.dump

fix 0 all nvt temp 1 5000 0.01

compute myXRD all xrd 1.5406 Ni

fix 1 all ave/time 100 10 1000 c_myXRD[*] file ni.xray mode vector

run 10000

